; SPDX-License-Identifier: MPL-2.0
; Copyright (c) 2026 The RIINA Authors.
; Auto-generated from 02_FORMAL/coq/domains/ModuleSystems.v (26 validations)
; Generated by scripts/generate-full-stack.py
;
; Translation Validation for ModuleSystems
; Layer 9: Verifies compiler backend preserves formal semantics.
; Each assertion checks source IR ≡ target code for a proven property.

(set-logic QF_LIA)
(set-option :produce-models true)

; IR node representation
(declare-sort IRNode 0)
(declare-sort TargetNode 0)

; visibility_eqb: source semantics (matches Coq)
(declare-fun source_visibility_eqb () Bool)
(declare-fun target_visibility_eqb () Bool)
(assert (= source_visibility_eqb target_visibility_eqb))

; vis_accessible: source semantics (matches Coq)
(declare-fun source_vis_accessible () Bool)
(declare-fun target_vis_accessible () Bool)
(assert (= source_vis_accessible target_vis_accessible))

; item_name: source semantics (matches Coq)
(declare-fun source_item_name () Bool)
(declare-fun target_item_name () Bool)
(assert (= source_item_name target_item_name))

; item_visibility: source semantics (matches Coq)
(declare-fun source_item_visibility () Bool)
(declare-fun target_item_visibility () Bool)
(assert (= source_item_visibility target_item_visibility))

; is_exported: source semantics (matches Coq)
(declare-fun source_is_exported () Bool)
(declare-fun target_is_exported () Bool)
(assert (= source_is_exported target_is_exported))

; item_exists: source semantics (matches Coq)
(declare-fun source_item_exists () Bool)
(declare-fun target_item_exists () Bool)
(assert (= source_item_exists target_item_exists))

; version_compatible: source semantics (matches Coq)
(declare-fun source_version_compatible () Bool)
(declare-fun target_version_compatible () Bool)
(assert (= source_version_compatible target_version_compatible))

; version_leb: source semantics (matches Coq)
(declare-fun source_version_leb () Bool)
(declare-fun target_version_leb () Bool)
(assert (= source_version_leb target_version_leb))

; module_wellformed: source semantics (matches Coq)
(declare-fun source_module_wellformed () Bool)
(declare-fun target_module_wellformed () Bool)
(assert (= source_module_wellformed target_module_wellformed))

; compose_modules: source semantics (matches Coq)
(declare-fun source_compose_modules () Bool)
(declare-fun target_compose_modules () Bool)
(assert (= source_compose_modules target_compose_modules))

; valid_import: source semantics (matches Coq)
(declare-fun source_valid_import () Bool)
(declare-fun target_valid_import () Bool)
(assert (= source_valid_import target_valid_import))

; init_order_valid: source semantics (matches Coq)
(declare-fun source_init_order_valid () Bool)
(declare-fun target_init_order_valid () Bool)
(assert (= source_init_order_valid target_init_order_valid))

; same_crate: source semantics (matches Coq)
(declare-fun source_same_crate () Bool)
(declare-fun target_same_crate () Bool)
(assert (= source_same_crate target_same_crate))

; crate_accessible: source semantics (matches Coq)
(declare-fun source_crate_accessible () Bool)
(declare-fun target_crate_accessible () Bool)
(assert (= source_crate_accessible target_crate_accessible))

; valid_reexport: source semantics (matches Coq)
(declare-fun source_valid_reexport () Bool)
(declare-fun target_valid_reexport () Bool)
(assert (= source_valid_reexport target_valid_reexport))

; capability_allows_import: source semantics (matches Coq)
(declare-fun source_capability_allows_import () Bool)
(declare-fun target_capability_allows_import () Bool)
(assert (= source_capability_allows_import target_capability_allows_import))

; impl_matches_sig: source semantics (matches Coq)
(declare-fun source_impl_matches_sig () Bool)
(declare-fun target_impl_matches_sig () Bool)
(assert (= source_impl_matches_sig target_impl_matches_sig))

; sealed_impl_allowed: source semantics (matches Coq)
(declare-fun source_sealed_impl_allowed () Bool)
(declare-fun target_sealed_impl_allowed () Bool)
(assert (= source_sealed_impl_allowed target_sealed_impl_allowed))

; assoc_type_consistent: source semantics (matches Coq)
(declare-fun source_assoc_type_consistent () Bool)
(declare-fun target_assoc_type_consistent () Bool)
(assert (= source_assoc_type_consistent target_assoc_type_consistent))

; extract_interface: source semantics (matches Coq)
(declare-fun source_extract_interface () Bool)
(declare-fun target_extract_interface () Bool)
(assert (= source_extract_interface target_extract_interface))

; interface_sound: source semantics (matches Coq)
(declare-fun source_interface_sound () Bool)
(declare-fun target_interface_sound () Bool)
(assert (= source_interface_sound target_interface_sound))

; cu_unchanged: source semantics (matches Coq)
(declare-fun source_cu_unchanged () Bool)
(declare-fun target_cu_unchanged () Bool)
(assert (= source_cu_unchanged target_cu_unchanged))

; incremental_correct: source semantics (matches Coq)
(declare-fun source_incremental_correct () Bool)
(declare-fun target_incremental_correct () Bool)
(assert (= source_incremental_correct target_incremental_correct))

; cu_has_type: source semantics (matches Coq)
(declare-fun source_cu_has_type () Bool)
(declare-fun target_cu_has_type () Bool)
(assert (= source_cu_has_type target_cu_has_type))

; type_preserved: source semantics (matches Coq)
(declare-fun source_type_preserved () Bool)
(declare-fun target_type_preserved () Bool)
(assert (= source_type_preserved target_type_preserved))

; effects_preserved: source semantics (matches Coq)
(declare-fun source_effects_preserved () Bool)
(declare-fun target_effects_preserved () Bool)
(assert (= source_effects_preserved target_effects_preserved))

; deps_acyclic: source semantics (matches Coq)
(declare-fun source_deps_acyclic () Bool)
(declare-fun target_deps_acyclic () Bool)
(assert (= source_deps_acyclic target_deps_acyclic))

; version_satisfies: source semantics (matches Coq)
(declare-fun source_version_satisfies () Bool)
(declare-fun target_version_satisfies () Bool)
(assert (= source_version_satisfies target_version_satisfies))

; all_deps_satisfied: source semantics (matches Coq)
(declare-fun source_all_deps_satisfied () Bool)
(declare-fun target_all_deps_satisfied () Bool)
(assert (= source_all_deps_satisfied target_all_deps_satisfied))

; security_version_ok: source semantics (matches Coq)
(declare-fun source_security_version_ok () Bool)
(declare-fun target_security_version_ok () Bool)
(assert (= source_security_version_ok target_security_version_ok))

; security_versions_enforced: source semantics (matches Coq)
(declare-fun source_security_versions_enforced () Bool)
(declare-fun target_security_versions_enforced () Bool)
(assert (= source_security_versions_enforced target_security_versions_enforced))

; depends_on: source semantics (matches Coq)
(declare-fun source_depends_on () Bool)
(declare-fun target_depends_on () Bool)
(assert (= source_depends_on target_depends_on))

; init_respects_deps: source semantics (matches Coq)
(declare-fun source_init_respects_deps () Bool)
(declare-fun target_init_respects_deps () Bool)
(assert (= source_init_respects_deps target_init_respects_deps))

; init_deterministic: source semantics (matches Coq)
(declare-fun source_init_deterministic () Bool)
(declare-fun target_init_deterministic () Bool)
(assert (= source_init_deterministic target_init_deterministic))

; caps_satisfied: source semantics (matches Coq)
(declare-fun source_caps_satisfied () Bool)
(declare-fun target_caps_satisfied () Bool)
(assert (= source_caps_satisfied target_caps_satisfied))

; secure_init_valid: source semantics (matches Coq)
(declare-fun source_secure_init_valid () Bool)
(declare-fun target_secure_init_valid () Bool)
(assert (= source_secure_init_valid target_secure_init_valid))

; J_001_01: translation preserves property (matches Coq: Theorem)
(declare-fun source_J_001_01 () Bool)
(declare-fun target_J_001_01 () Bool)
(assert (= source_J_001_01 target_J_001_01))

; J_001_02: translation preserves property (matches Coq: Theorem)
(declare-fun source_J_001_02 () Bool)
(declare-fun target_J_001_02 () Bool)
(assert (= source_J_001_02 target_J_001_02))

; J_001_03: translation preserves property (matches Coq: Theorem)
(declare-fun source_J_001_03 () Bool)
(declare-fun target_J_001_03 () Bool)
(assert (= source_J_001_03 target_J_001_03))

; J_001_04: translation preserves property (matches Coq: Theorem)
(declare-fun source_J_001_04 () Bool)
(declare-fun target_J_001_04 () Bool)
(assert (= source_J_001_04 target_J_001_04))

; J_001_05: translation preserves property (matches Coq: Theorem)
(declare-fun source_J_001_05 () Bool)
(declare-fun target_J_001_05 () Bool)
(assert (= source_J_001_05 target_J_001_05))

; J_001_06: translation preserves property (matches Coq: Theorem)
(declare-fun source_J_001_06 () Bool)
(declare-fun target_J_001_06 () Bool)
(assert (= source_J_001_06 target_J_001_06))

; J_001_07: translation preserves property (matches Coq: Theorem)
(declare-fun source_J_001_07 () Bool)
(declare-fun target_J_001_07 () Bool)
(assert (= source_J_001_07 target_J_001_07))

; J_001_08: translation preserves property (matches Coq: Theorem)
(declare-fun source_J_001_08 () Bool)
(declare-fun target_J_001_08 () Bool)
(assert (= source_J_001_08 target_J_001_08))

; J_001_09: translation preserves property (matches Coq: Theorem)
(declare-fun source_J_001_09 () Bool)
(declare-fun target_J_001_09 () Bool)
(assert (= source_J_001_09 target_J_001_09))

; J_001_10: translation preserves property (matches Coq: Theorem)
(declare-fun source_J_001_10 () Bool)
(declare-fun target_J_001_10 () Bool)
(assert (= source_J_001_10 target_J_001_10))

; J_001_11: translation preserves property (matches Coq: Theorem)
(declare-fun source_J_001_11 () Bool)
(declare-fun target_J_001_11 () Bool)
(assert (= source_J_001_11 target_J_001_11))

; J_001_12: translation preserves property (matches Coq: Theorem)
(declare-fun source_J_001_12 () Bool)
(declare-fun target_J_001_12 () Bool)
(assert (= source_J_001_12 target_J_001_12))

; J_001_13: translation preserves property (matches Coq: Theorem)
(declare-fun source_J_001_13 () Bool)
(declare-fun target_J_001_13 () Bool)
(assert (= source_J_001_13 target_J_001_13))

; J_001_14: translation preserves property (matches Coq: Theorem)
(declare-fun source_J_001_14 () Bool)
(declare-fun target_J_001_14 () Bool)
(assert (= source_J_001_14 target_J_001_14))

; J_001_15: translation preserves property (matches Coq: Theorem)
(declare-fun source_J_001_15 () Bool)
(declare-fun target_J_001_15 () Bool)
(assert (= source_J_001_15 target_J_001_15))

; J_001_16: translation preserves property (matches Coq: Theorem)
(declare-fun source_J_001_16 () Bool)
(declare-fun target_J_001_16 () Bool)
(assert (= source_J_001_16 target_J_001_16))

; J_001_17: translation preserves property (matches Coq: Theorem)
(declare-fun source_J_001_17 () Bool)
(declare-fun target_J_001_17 () Bool)
(assert (= source_J_001_17 target_J_001_17))

; J_001_18: translation preserves property (matches Coq: Theorem)
(declare-fun source_J_001_18 () Bool)
(declare-fun target_J_001_18 () Bool)
(assert (= source_J_001_18 target_J_001_18))

; J_001_19: translation preserves property (matches Coq: Theorem)
(declare-fun source_J_001_19 () Bool)
(declare-fun target_J_001_19 () Bool)
(assert (= source_J_001_19 target_J_001_19))

; find_exists: translation preserves property (matches Coq: Lemma)
(declare-fun source_find_exists () Bool)
(declare-fun target_find_exists () Bool)
(assert (= source_find_exists target_find_exists))

; J_001_20: translation preserves property (matches Coq: Theorem)
(declare-fun source_J_001_20 () Bool)
(declare-fun target_J_001_20 () Bool)
(assert (= source_J_001_20 target_J_001_20))

; J_001_21: translation preserves property (matches Coq: Theorem)
(declare-fun source_J_001_21 () Bool)
(declare-fun target_J_001_21 () Bool)
(assert (= source_J_001_21 target_J_001_21))

; J_001_22: translation preserves property (matches Coq: Theorem)
(declare-fun source_J_001_22 () Bool)
(declare-fun target_J_001_22 () Bool)
(assert (= source_J_001_22 target_J_001_22))

; J_001_23: translation preserves property (matches Coq: Theorem)
(declare-fun source_J_001_23 () Bool)
(declare-fun target_J_001_23 () Bool)
(assert (= source_J_001_23 target_J_001_23))

; J_001_24: translation preserves property (matches Coq: Theorem)
(declare-fun source_J_001_24 () Bool)
(declare-fun target_J_001_24 () Bool)
(assert (= source_J_001_24 target_J_001_24))

; J_001_25: translation preserves property (matches Coq: Theorem)
(declare-fun source_J_001_25 () Bool)
(declare-fun target_J_001_25 () Bool)
(assert (= source_J_001_25 target_J_001_25))

; Verify all translation validations are satisfiable
(check-sat)
(exit)
